NAME: PointSet_Angle_5_7
TYPE: TSP
COMMENT: Points chosen discrete uniformly at random out of ${0, \ldots, 500}^2$.
DIMENSION: 5
EDGE_WEIGHT_TYPE: EUC_2D
NODE_COORD_SECTION
1 114 306
2 320 40
3 491 228
4 59 223
5 54 424
EOF
